
Gurobi 7.0.1 (mac64, Python) logging started Fri Nov 18 11:08:51 2016


Gurobi 7.0.1 (mac64, Python) logging started Fri Nov 18 11:55:12 2016


Gurobi 7.0.1 (mac64, Python) logging started Fri Nov 18 11:55:52 2016


Gurobi 7.0.1 (mac64, Python) logging started Fri Nov 18 11:56:10 2016


Gurobi 7.0.1 (mac64, Python) logging started Fri Nov 18 11:56:27 2016


Gurobi 7.0.1 (mac64, Python) logging started Fri Nov 18 11:56:38 2016


Gurobi 7.0.1 (mac64, Python) logging started Fri Nov 18 11:56:48 2016


Gurobi 7.0.1 (mac64, Python) logging started Fri Nov 18 12:08:34 2016


Gurobi 7.0.1 (mac64, Python) logging started Fri Nov 18 12:08:48 2016


Gurobi 7.0.1 (mac64, Python) logging started Fri Nov 18 12:16:26 2016


Gurobi 7.0.1 (mac64, Python) logging started Fri Nov 18 12:16:39 2016


Gurobi 7.0.1 (mac64, Python) logging started Fri Nov 18 12:16:40 2016


Gurobi 7.0.1 (mac64, Python) logging started Fri Nov 18 12:16:58 2016


Gurobi 7.0.1 (mac64, Python) logging started Fri Nov 18 12:16:59 2016


Gurobi 7.0.1 (mac64, Python) logging started Fri Nov 18 12:17:00 2016


Gurobi 7.0.1 (mac64, Python) logging started Fri Nov 18 12:17:01 2016


Gurobi 7.0.1 (mac64, Python) logging started Fri Nov 18 12:17:01 2016


Gurobi 7.0.1 (mac64, Python) logging started Fri Nov 18 12:17:02 2016


Gurobi 7.0.1 (mac64, Python) logging started Fri Nov 18 12:17:03 2016


Gurobi 7.0.1 (mac64, Python) logging started Fri Nov 18 12:17:04 2016


Gurobi 7.0.1 (mac64, Python) logging started Fri Nov 18 12:17:05 2016


Gurobi 7.0.1 (mac64, Python) logging started Fri Nov 18 12:17:05 2016


Gurobi 7.0.1 (mac64, Python) logging started Fri Nov 18 12:17:25 2016


Gurobi 7.0.1 (mac64, Python) logging started Fri Nov 18 12:17:29 2016


Gurobi 7.0.1 (mac64, Python) logging started Fri Nov 18 12:17:36 2016


Gurobi 7.0.1 (mac64, Python) logging started Fri Nov 18 12:17:37 2016


Gurobi 7.0.1 (mac64, Python) logging started Fri Nov 18 12:17:37 2016


Gurobi 7.0.1 (mac64, Python) logging started Fri Nov 18 12:17:38 2016


Gurobi 7.0.1 (mac64, Python) logging started Fri Nov 18 12:17:39 2016


Gurobi 7.0.1 (mac64, Python) logging started Fri Nov 18 12:17:40 2016


Gurobi 7.0.1 (mac64, Python) logging started Fri Nov 18 12:17:40 2016


Gurobi 7.0.1 (mac64, Python) logging started Fri Nov 18 12:17:41 2016


Gurobi 7.0.1 (mac64, Python) logging started Fri Nov 18 12:17:43 2016


Gurobi 7.0.1 (mac64, Python) logging started Fri Nov 18 12:17:43 2016


Gurobi 7.0.1 (mac64, Python) logging started Fri Nov 18 12:17:44 2016


Gurobi 7.0.1 (mac64, Python) logging started Fri Nov 18 12:17:45 2016


Gurobi 7.0.1 (mac64, Python) logging started Fri Nov 18 12:18:38 2016


Gurobi 7.0.1 (mac64, Python) logging started Fri Nov 18 12:18:49 2016


Gurobi 7.0.1 (mac64, Python) logging started Fri Nov 18 12:19:59 2016


Gurobi 7.0.1 (mac64, Python) logging started Fri Nov 18 12:20:10 2016


Gurobi 7.0.1 (mac64, Python) logging started Fri Nov 18 12:38:04 2016


Gurobi 7.0.1 (mac64, Python) logging started Fri Nov 18 12:39:34 2016


Gurobi 7.0.1 (mac64, Python) logging started Fri Nov 18 12:44:34 2016


Gurobi 7.0.1 (mac64, Python) logging started Fri Nov 18 12:44:39 2016


Gurobi 7.0.1 (mac64, Python) logging started Fri Nov 18 12:44:42 2016


Gurobi 7.0.1 (mac64, Python) logging started Fri Nov 18 12:44:43 2016


Gurobi 7.0.1 (mac64, Python) logging started Fri Nov 18 12:44:44 2016


Gurobi 7.0.1 (mac64, Python) logging started Fri Nov 18 12:44:45 2016


Gurobi 7.0.1 (mac64, Python) logging started Fri Nov 18 12:44:46 2016


Gurobi 7.0.1 (mac64, Python) logging started Fri Nov 18 12:45:00 2016


Gurobi 7.0.1 (mac64, Python) logging started Fri Nov 18 12:45:01 2016


Gurobi 7.0.1 (mac64, Python) logging started Fri Nov 18 12:45:04 2016


Gurobi 7.0.1 (mac64, Python) logging started Fri Nov 18 12:45:05 2016


Gurobi 7.0.1 (mac64, Python) logging started Fri Nov 18 12:45:11 2016


Gurobi 7.0.1 (mac64, Python) logging started Fri Nov 18 12:45:12 2016


Gurobi 7.0.1 (mac64, Python) logging started Fri Nov 18 12:45:14 2016


Gurobi 7.0.1 (mac64, Python) logging started Fri Nov 18 12:45:15 2016


Gurobi 7.0.1 (mac64, Python) logging started Fri Nov 18 12:45:16 2016


Gurobi 7.0.1 (mac64, Python) logging started Fri Nov 18 12:45:17 2016


Gurobi 7.0.1 (mac64, Python) logging started Fri Nov 18 12:45:29 2016


Gurobi 7.0.1 (mac64, Python) logging started Fri Nov 18 12:45:36 2016


Gurobi 7.0.1 (mac64, Python) logging started Fri Nov 18 12:45:57 2016


Gurobi 7.0.1 (mac64, Python) logging started Fri Nov 18 12:46:22 2016


Gurobi 7.0.1 (mac64, Python) logging started Fri Nov 18 12:46:34 2016


Gurobi 7.0.1 (mac64, Python) logging started Fri Nov 18 12:46:57 2016


Gurobi 7.0.1 (mac64, Python) logging started Fri Nov 18 12:47:09 2016


Gurobi 7.0.1 (mac64, Python) logging started Fri Nov 18 12:47:42 2016


Gurobi 7.0.1 (mac64, Python) logging started Fri Nov 18 12:47:58 2016


Gurobi 7.0.1 (mac64, Python) logging started Fri Nov 18 12:48:05 2016


Gurobi 7.0.1 (mac64, Python) logging started Fri Nov 18 12:48:23 2016


Gurobi 7.0.1 (mac64, Python) logging started Fri Nov 18 12:48:32 2016


Gurobi 7.0.1 (mac64, Python) logging started Fri Nov 18 12:48:36 2016


Gurobi 7.0.1 (mac64, Python) logging started Fri Nov 18 12:48:49 2016


Gurobi 7.0.1 (mac64, Python) logging started Fri Nov 18 12:48:57 2016


Gurobi 7.0.1 (mac64, Python) logging started Fri Nov 18 12:49:04 2016


Gurobi 7.0.1 (mac64, Python) logging started Fri Nov 18 12:49:48 2016


Gurobi 7.0.1 (mac64, Python) logging started Fri Nov 18 12:50:05 2016


Gurobi 7.0.1 (mac64, Python) logging started Fri Nov 18 12:50:20 2016


Gurobi 7.0.1 (mac64, Python) logging started Fri Nov 18 12:51:06 2016


Gurobi 7.0.1 (mac64, Python) logging started Fri Nov 18 12:52:06 2016


Gurobi 7.0.1 (mac64, Python) logging started Fri Nov 18 12:53:00 2016


Gurobi 7.0.1 (mac64, Python) logging started Fri Nov 18 12:54:05 2016


Gurobi 7.0.1 (mac64, Python) logging started Fri Nov 18 12:55:00 2016


Gurobi 7.0.1 (mac64, Python) logging started Fri Nov 18 12:55:42 2016


Gurobi 7.0.1 (mac64, Python) logging started Fri Nov 18 12:56:30 2016


Gurobi 7.0.1 (mac64, Python) logging started Fri Nov 18 12:57:23 2016


Gurobi 7.0.1 (mac64, Python) logging started Fri Nov 18 12:57:46 2016


Gurobi 7.0.1 (mac64, Python) logging started Fri Nov 18 12:58:59 2016


Gurobi 7.0.1 (mac64, Python) logging started Fri Nov 18 12:59:37 2016


Gurobi 7.0.1 (mac64, Python) logging started Fri Nov 18 13:02:06 2016


Gurobi 7.0.1 (mac64, Python) logging started Fri Nov 18 13:05:32 2016


Gurobi 7.0.1 (mac64, Python) logging started Fri Nov 18 13:07:37 2016


Gurobi 7.0.1 (mac64, Python) logging started Fri Nov 18 13:07:53 2016


Gurobi 7.0.1 (mac64, Python) logging started Fri Nov 18 13:08:03 2016


Gurobi 7.0.1 (mac64, Python) logging started Fri Nov 18 13:10:13 2016


Gurobi 7.0.1 (mac64, Python) logging started Fri Nov 18 13:10:30 2016


Gurobi 7.0.1 (mac64, Python) logging started Fri Nov 18 13:11:11 2016


Gurobi 7.0.1 (mac64, Python) logging started Fri Nov 18 13:11:22 2016


Gurobi 7.0.1 (mac64, Python) logging started Fri Nov 18 13:11:34 2016


Gurobi 7.0.1 (mac64, Python) logging started Fri Nov 18 13:12:01 2016


Gurobi 7.0.1 (mac64, Python) logging started Fri Nov 18 15:25:06 2016


Gurobi 7.0.1 (mac64, Python) logging started Fri Nov 18 15:25:14 2016


Gurobi 7.0.1 (mac64, Python) logging started Fri Nov 18 15:25:35 2016


Gurobi 7.0.1 (mac64, Python) logging started Fri Nov 18 15:26:05 2016


Gurobi 7.0.1 (mac64, Python) logging started Fri Nov 18 15:28:30 2016


Gurobi 7.0.1 (mac64, Python) logging started Fri Nov 18 15:29:19 2016


Gurobi 7.0.1 (mac64, Python) logging started Fri Nov 18 15:29:34 2016


Gurobi 7.0.1 (mac64, Python) logging started Fri Nov 18 15:30:04 2016


Gurobi 7.0.1 (mac64, Python) logging started Fri Nov 18 15:30:30 2016


Gurobi 7.0.1 (mac64, Python) logging started Fri Nov 18 15:30:50 2016


Gurobi 7.0.1 (mac64, Python) logging started Fri Nov 18 15:31:16 2016


Gurobi 7.0.1 (mac64, Python) logging started Fri Nov 18 15:31:33 2016


Gurobi 7.0.1 (mac64, Python) logging started Fri Nov 18 15:32:55 2016


Gurobi 7.0.1 (mac64, Python) logging started Fri Nov 18 15:36:39 2016


Gurobi 7.0.1 (mac64, Python) logging started Fri Nov 18 15:38:53 2016


Gurobi 7.0.1 (mac64, Python) logging started Fri Nov 18 15:39:02 2016


Gurobi 7.0.1 (mac64, Python) logging started Fri Nov 18 15:39:40 2016


Gurobi 7.0.1 (mac64, Python) logging started Fri Nov 18 15:44:12 2016


Gurobi 7.0.1 (mac64, Python) logging started Fri Nov 18 15:44:40 2016


Gurobi 7.0.1 (mac64, Python) logging started Fri Nov 18 15:45:12 2016


Gurobi 7.0.1 (mac64, Python) logging started Fri Nov 18 15:49:15 2016


Gurobi 7.0.1 (mac64, Python) logging started Fri Nov 18 15:49:40 2016


Gurobi 7.0.1 (mac64, Python) logging started Fri Nov 18 15:59:57 2016


Gurobi 7.0.1 (mac64, Python) logging started Fri Nov 18 16:00:33 2016


Gurobi 7.0.1 (mac64, Python) logging started Fri Nov 18 16:09:12 2016


Gurobi 7.0.1 (mac64, Python) logging started Fri Nov 18 16:09:24 2016


Gurobi 7.0.1 (mac64, Python) logging started Fri Nov 18 16:10:31 2016


Gurobi 7.0.1 (mac64, Python) logging started Fri Nov 18 16:11:44 2016


Gurobi 7.0.1 (mac64, Python) logging started Fri Nov 18 16:13:07 2016


Gurobi 7.0.1 (mac64, Python) logging started Fri Nov 18 16:13:53 2016


Gurobi 7.0.1 (mac64, Python) logging started Fri Nov 18 16:14:36 2016


Gurobi 7.0.1 (mac64, Python) logging started Fri Nov 18 16:14:56 2016


Gurobi 7.0.1 (mac64, Python) logging started Fri Nov 18 16:15:21 2016


Gurobi 7.0.1 (mac64, Python) logging started Fri Nov 18 16:16:43 2016


Gurobi 7.0.1 (mac64, Python) logging started Fri Nov 18 16:17:06 2016


Gurobi 7.0.1 (mac64, Python) logging started Fri Nov 18 16:17:42 2016


Gurobi 7.0.1 (mac64, Python) logging started Fri Nov 18 16:17:58 2016


Gurobi 7.0.1 (mac64, Python) logging started Fri Nov 18 16:18:27 2016


Gurobi 7.0.1 (mac64, Python) logging started Fri Nov 18 16:18:48 2016


Gurobi 7.0.1 (mac64, Python) logging started Fri Nov 18 16:20:39 2016


Gurobi 7.0.1 (mac64, Python) logging started Fri Nov 18 16:20:40 2016


Gurobi 7.0.1 (mac64, Python) logging started Fri Nov 18 16:20:56 2016


Gurobi 7.0.1 (mac64, Python) logging started Fri Nov 18 16:21:10 2016


Gurobi 7.0.1 (mac64, Python) logging started Fri Nov 18 16:21:21 2016


Gurobi 7.0.1 (mac64, Python) logging started Fri Nov 18 16:21:46 2016


Gurobi 7.0.1 (mac64, Python) logging started Fri Nov 18 16:25:27 2016


Gurobi 7.0.1 (mac64, Python) logging started Fri Nov 18 16:26:07 2016


Gurobi 7.0.1 (mac64, Python) logging started Fri Nov 18 16:26:20 2016


Gurobi 7.0.1 (mac64, Python) logging started Fri Nov 18 16:26:52 2016


Gurobi 7.0.1 (mac64, Python) logging started Fri Nov 18 16:27:15 2016


Gurobi 7.0.1 (mac64, Python) logging started Fri Nov 18 16:28:02 2016


Gurobi 7.0.1 (mac64, Python) logging started Fri Nov 18 16:30:46 2016


Gurobi 7.0.1 (mac64, Python) logging started Fri Nov 18 16:31:06 2016


Gurobi 7.0.1 (mac64, Python) logging started Fri Nov 18 16:32:05 2016


Gurobi 7.0.1 (mac64, Python) logging started Fri Nov 18 16:32:22 2016


Gurobi 7.0.1 (mac64, Python) logging started Fri Nov 18 16:32:50 2016


Gurobi 7.0.1 (mac64, Python) logging started Fri Nov 18 16:34:22 2016


Gurobi 7.0.1 (mac64, Python) logging started Fri Nov 18 16:35:03 2016


Gurobi 7.0.1 (mac64, Python) logging started Fri Nov 18 16:35:22 2016


Gurobi 7.0.1 (mac64, Python) logging started Fri Nov 18 16:36:00 2016


Gurobi 7.0.1 (mac64, Python) logging started Fri Nov 18 16:36:19 2016


Gurobi 7.0.1 (mac64, Python) logging started Fri Nov 18 16:40:30 2016


Gurobi 7.0.1 (mac64, Python) logging started Fri Nov 18 16:40:53 2016


Gurobi 7.0.1 (mac64, Python) logging started Fri Nov 18 16:43:02 2016


Gurobi 7.0.1 (mac64, Python) logging started Fri Nov 18 16:43:03 2016


Gurobi 7.0.1 (mac64, Python) logging started Fri Nov 18 16:43:38 2016


Gurobi 7.0.1 (mac64, Python) logging started Fri Nov 18 16:44:21 2016


Gurobi 7.0.1 (mac64, Python) logging started Fri Nov 18 16:45:51 2016


Gurobi 7.0.1 (mac64, Python) logging started Fri Nov 18 16:46:15 2016


Gurobi 7.0.1 (mac64, Python) logging started Fri Nov 18 16:48:44 2016


Gurobi 7.0.1 (mac64, Python) logging started Fri Nov 18 16:49:56 2016


Gurobi 7.0.1 (mac64, Python) logging started Fri Nov 18 16:50:37 2016


Gurobi 7.0.1 (mac64, Python) logging started Fri Nov 18 16:51:21 2016


Gurobi 7.0.1 (mac64, Python) logging started Fri Nov 18 16:51:42 2016


Gurobi 7.0.1 (mac64, Python) logging started Fri Nov 18 16:52:01 2016


Gurobi 7.0.1 (mac64, Python) logging started Fri Nov 18 16:52:42 2016


Gurobi 7.0.1 (mac64, Python) logging started Fri Nov 18 16:59:14 2016


Gurobi 7.0.1 (mac64, Python) logging started Fri Nov 18 16:59:53 2016


Gurobi 7.0.1 (mac64, Python) logging started Fri Nov 18 17:00:23 2016


Gurobi 7.0.1 (mac64, Python) logging started Fri Nov 18 17:01:18 2016


Gurobi 7.0.1 (mac64, Python) logging started Fri Nov 18 17:01:36 2016


Gurobi 7.0.1 (mac64, Python) logging started Fri Nov 18 17:01:51 2016


Gurobi 7.0.1 (mac64, Python) logging started Fri Nov 18 17:05:39 2016


Gurobi 7.0.1 (mac64, Python) logging started Fri Nov 18 17:07:09 2016


Gurobi 7.0.1 (mac64, Python) logging started Fri Nov 18 17:07:31 2016


Gurobi 7.0.1 (mac64, Python) logging started Fri Nov 18 17:08:35 2016


Gurobi 7.0.1 (mac64, Python) logging started Fri Nov 18 17:09:29 2016


Gurobi 7.0.1 (mac64, Python) logging started Fri Nov 18 17:14:25 2016


Gurobi 7.0.1 (mac64, Python) logging started Fri Nov 18 17:14:48 2016


Gurobi 7.0.1 (mac64, Python) logging started Fri Nov 18 17:16:17 2016


Gurobi 7.0.1 (mac64, Python) logging started Fri Nov 18 17:16:36 2016


Gurobi 7.0.1 (mac64, Python) logging started Fri Nov 18 17:19:41 2016


Gurobi 7.0.1 (mac64, Python) logging started Fri Nov 18 17:22:21 2016


Gurobi 7.0.1 (mac64, Python) logging started Fri Nov 18 17:25:28 2016


Gurobi 7.0.1 (mac64, Python) logging started Fri Nov 18 17:25:57 2016


Gurobi 7.0.1 (mac64, Python) logging started Fri Nov 18 17:26:31 2016


Gurobi 7.0.1 (mac64, Python) logging started Fri Nov 18 17:27:29 2016


Gurobi 7.0.1 (mac64, Python) logging started Fri Nov 18 17:28:04 2016


Gurobi 7.0.1 (mac64, Python) logging started Fri Nov 18 17:29:48 2016


Gurobi 7.0.1 (mac64, Python) logging started Fri Nov 18 17:29:58 2016


Gurobi 7.0.1 (mac64, Python) logging started Fri Nov 18 17:30:39 2016


Gurobi 7.0.1 (mac64, Python) logging started Fri Nov 18 17:31:47 2016


Gurobi 7.0.1 (mac64, Python) logging started Fri Nov 18 17:32:32 2016


Gurobi 7.0.1 (mac64, Python) logging started Fri Nov 18 17:33:13 2016


Gurobi 7.0.1 (mac64, Python) logging started Fri Nov 18 17:34:06 2016


Gurobi 7.0.1 (mac64, Python) logging started Fri Nov 18 17:34:27 2016


Gurobi 7.0.1 (mac64, Python) logging started Fri Nov 18 17:35:39 2016


Gurobi 7.0.1 (mac64, Python) logging started Fri Nov 18 17:36:03 2016


Gurobi 7.0.1 (mac64, Python) logging started Fri Nov 18 17:36:20 2016


Gurobi 7.0.1 (mac64, Python) logging started Fri Nov 18 17:36:56 2016


Gurobi 7.0.1 (mac64, Python) logging started Fri Nov 18 17:37:03 2016


Gurobi 7.0.1 (mac64, Python) logging started Fri Nov 18 17:37:48 2016


Gurobi 7.0.1 (mac64, Python) logging started Fri Nov 18 17:38:03 2016


Gurobi 7.0.1 (mac64, Python) logging started Fri Nov 18 17:38:44 2016


Gurobi 7.0.1 (mac64, Python) logging started Fri Nov 18 17:39:24 2016


Gurobi 7.0.1 (mac64, Python) logging started Fri Nov 18 17:39:50 2016


Gurobi 7.0.1 (mac64, Python) logging started Fri Nov 18 17:40:21 2016


Gurobi 7.0.1 (mac64, Python) logging started Fri Nov 18 17:40:30 2016


Gurobi 7.0.1 (mac64, Python) logging started Fri Nov 18 17:41:03 2016


Gurobi 7.0.1 (mac64, Python) logging started Fri Nov 18 17:42:49 2016


Gurobi 7.0.1 (mac64, Python) logging started Fri Nov 18 17:43:02 2016


Gurobi 7.0.1 (mac64, Python) logging started Fri Nov 18 17:45:11 2016


Gurobi 7.0.1 (mac64, Python) logging started Fri Nov 18 17:45:59 2016


Gurobi 7.0.1 (mac64, Python) logging started Fri Nov 18 17:46:54 2016


Gurobi 7.0.1 (mac64, Python) logging started Fri Nov 18 17:47:49 2016

